(declare-const __VERIFIER_assert__cond___7 Int)
(declare-const |__VERIFIER_assert__cond___8':300:316:325:1112:1139| Int)
(declare-const |__VERIFIER_assert__cond___3':297:320:329:1116:1143| Int)
(declare-const |main____CPAchecker_TMP_0___0':142:165:172:341:465:1135| Int)
(declare-const |phi_main__t:349:452:1122| Int)
(declare-const __VERIFIER_assert__cond___16 Int)
(declare-const |phi___tmp_383_0:351:450:1120| Int)
(declare-const havoc Int)
(declare-const |__VERIFIER_assert__cond___7':299:315:324:1111:1138| Int)
(declare-const |K:158:159:166:335:459:1129| Int)
(declare-const __VERIFIER_assert__cond___8 Int)
(declare-const |main__t':140:317:326:1113:1140| Int)
(declare-const |__VERIFIER_assert__cond___4':298:319:328:1115:1142| Int)
(declare-const |phi___VERIFIER_assert__cond___16:343:458:1128| Int)
(declare-const |__VERIFIER_assert__cond___15':143:161:168:337:461:1131| Int)
(declare-const |havoc:3:58:1119| Int)
(declare-const |main____CPAchecker_TMP_3':295:322:331:1118:1145| Int)
(declare-const main____CPAchecker_TMP_6 Int)
(declare-const |havoc:9:59:138:334:342:466:1136| Int)
(declare-const main____CPAchecker_TMP_4 Int)
(declare-const __VERIFIER_assert__cond___3 Int)
(declare-const |main____CPAchecker_TMP_6':301:318:327:1114:1141| Int)
(declare-const |phi___VERIFIER_assert__cond___12:346:455:1125| Int)
(declare-const |main____CPAchecker_TMP_0':141:162:169:338:462:1132| Int)
(declare-const |phi___tmp_247_0:350:451:1121| Int)
(declare-const main____CPAchecker_TMP_3 Int)
(declare-const |__VERIFIER_assert__cond___16':144:164:171:340:464:1134| Int)
(declare-const __VERIFIER_assert__cond___11 Int)
(declare-const __VERIFIER_assert__cond___12 Int)
(declare-const |phi___VERIFIER_assert__cond___15:344:457:1127| Int)
(declare-const __tmp_383_0 Int)
(declare-const __VERIFIER_assert__cond___4 Int)
(declare-const |phi___VERIFIER_assert__cond___11:347:454:1124| Int)
(declare-const |__tmp_383_0':139:163:170:339:463:1133| Int)
(declare-const |K:313:314:323:1110:1137| Int)
(declare-const |main____CPAchecker_TMP_4':296:321:330:1117:1144| Int)
(declare-const |phi_main____CPAchecker_TMP_0___0:345:456:1126| Int)
(declare-const main____CPAchecker_TMP_0___0 Int)
(declare-const __VERIFIER_assert__cond___15 Int)
(declare-const |main__t':140:160:167:336:460:1130| Int)
(declare-const |phi_main____CPAchecker_TMP_0:348:453:1123| Int)
(assert (and (<= (+ (- havoc) 1) 0) (not (= (+ (- havoc) 1) 0))
               (or (and (not (= |havoc:3:58:1119| 0))
                          (= (+ (- |phi___tmp_383_0:351:450:1120|)
                                  __tmp_383_0) 0)
                          (= (+ (- |phi___tmp_247_0:350:451:1121|)
                                  |havoc:3:58:1119|) 0)
                          (= (- |phi_main__t:349:452:1122|) 0)
                          (= (+ (- |phi_main____CPAchecker_TMP_0:348:453:1123|)
                                  |havoc:3:58:1119|) 0)
                          (= (+ (- |phi___VERIFIER_assert__cond___11:347:454:1124|)
                                  __VERIFIER_assert__cond___11) 0)
                          (= (+ (- |phi___VERIFIER_assert__cond___12:346:455:1125|)
                                  __VERIFIER_assert__cond___12) 0)
                          (= (+ (- |phi_main____CPAchecker_TMP_0___0:345:456:1126|)
                                  main____CPAchecker_TMP_0___0) 0)
                          (= (+ (- |phi___VERIFIER_assert__cond___15:344:457:1127|)
                                  __VERIFIER_assert__cond___15) 0)
                          (= (+ (- |phi___VERIFIER_assert__cond___16:343:458:1128|)
                                  __VERIFIER_assert__cond___16) 0))
                     (and (= |havoc:3:58:1119| 0)
                            (not (= (ite (<= (+ (- havoc) 1) 0) 1 0) 0))
                            (or (not (<= (- |K:158:159:166:335:459:1129|) 0))
                                  (= (+ |main__t':140:160:167:336:460:1130|
                                          (- |K:158:159:166:335:459:1129|)) 0))
                            (or (not (and (<= (- |K:158:159:166:335:459:1129|) 0)
                                            (<= |K:158:159:166:335:459:1129| 0)))
                                  (= (+ |__VERIFIER_assert__cond___15':143:161:168:337:461:1131|
                                          (- __VERIFIER_assert__cond___15)) 0))
                            (or (not (<= (+ (- |K:158:159:166:335:459:1129|)
                                              1) 0))
                                  (= (+ |__VERIFIER_assert__cond___15':143:161:168:337:461:1131|
                                          -1) 0))
                            (or (not (and (<= (- |K:158:159:166:335:459:1129|) 0)
                                            (<= |K:158:159:166:335:459:1129| 0)))
                                  (= (+ |main____CPAchecker_TMP_0':141:162:169:338:462:1132|
                                          (- |havoc:3:58:1119|)) 0))
                            (or (not (<= (+ (- |K:158:159:166:335:459:1129|)
                                              1) 0))
                                  (= |main____CPAchecker_TMP_0':141:162:169:338:462:1132| 0))
                            (or (not (and (<= (- |K:158:159:166:335:459:1129|) 0)
                                            (<= |K:158:159:166:335:459:1129| 0)))
                                  (= (+ |__tmp_383_0':139:163:170:339:463:1133|
                                          (- |havoc:3:58:1119|)) 0))
                            (or (not (<= (+ (- |K:158:159:166:335:459:1129|)
                                              1) 0))
                                  (= |__tmp_383_0':139:163:170:339:463:1133| 0))
                            (or (not (and (<= (- |K:158:159:166:335:459:1129|) 0)
                                            (<= |K:158:159:166:335:459:1129| 0)))
                                  (= (+ |__VERIFIER_assert__cond___16':144:164:171:340:464:1134|
                                          (- __VERIFIER_assert__cond___16)) 0))
                            (or (not (<= (+ (- |K:158:159:166:335:459:1129|)
                                              1) 0))
                                  (= (+ |__VERIFIER_assert__cond___16':144:164:171:340:464:1134|
                                          -1) 0))
                            (or (not (and (<= (- |K:158:159:166:335:459:1129|) 0)
                                            (<= |K:158:159:166:335:459:1129| 0)))
                                  (= (+ |main____CPAchecker_TMP_0___0':142:165:172:341:465:1135|
                                          (- main____CPAchecker_TMP_0___0)) 0))
                            (or (not (<= (+ (- |K:158:159:166:335:459:1129|)
                                              1) 0))
                                  (= |main____CPAchecker_TMP_0___0':142:165:172:341:465:1135| 0))
                            (or (and (= |K:158:159:166:335:459:1129| 0)
                                       (= (+ (- |__VERIFIER_assert__cond___16':144:164:171:340:464:1134|)
                                               __VERIFIER_assert__cond___16) 0)
                                       (= (+ (- |__VERIFIER_assert__cond___15':143:161:168:337:461:1131|)
                                               __VERIFIER_assert__cond___15) 0)
                                       (= (+ (- |main____CPAchecker_TMP_0___0':142:165:172:341:465:1135|)
                                               main____CPAchecker_TMP_0___0) 0)
                                       (= (+ (- |main____CPAchecker_TMP_0':141:162:169:338:462:1132|)
                                               |havoc:3:58:1119|) 0)
                                       (= (- |main__t':140:160:167:336:460:1130|) 0)
                                       (= (+ (- |__tmp_383_0':139:163:170:339:463:1133|)
                                               |havoc:3:58:1119|) 0))
                                  (and (<= (+ (- |K:158:159:166:335:459:1129|)
                                                1) 0) (= |havoc:3:58:1119| 0)
                                         (= |havoc:3:58:1119| 0)
                                         (<= (+ (- havoc) 3) 0)
                                         (= (+ |__VERIFIER_assert__cond___16':144:164:171:340:464:1134|
                                                 -1) 0)
                                         (= (+ |__VERIFIER_assert__cond___15':143:161:168:337:461:1131|
                                                 -1) 0)
                                         (= |main____CPAchecker_TMP_0':141:162:169:338:462:1132| 0)
                                         (= |main____CPAchecker_TMP_0___0':142:165:172:341:465:1135| 0)
                                         (= |__tmp_383_0':139:163:170:339:463:1133| 0)
                                         (<= (+ |main__t':140:160:167:336:460:1130|
                                                  (- havoc) 2) 0)
                                         (<= (+ (- |main__t':140:160:167:336:460:1130|)
                                                  1) 0)))
                            (<= (- |K:158:159:166:335:459:1129|) 0)
                            (= |__tmp_383_0':139:163:170:339:463:1133| 0)
                            (= |main____CPAchecker_TMP_0':141:162:169:338:462:1132| 0)
                            (<= (- |main__t':140:160:167:336:460:1130|) 0)
                            (< (+ (- havoc) 1) 0)
                            (= |__tmp_383_0':139:163:170:339:463:1133| 0)
                            (= |main____CPAchecker_TMP_0':141:162:169:338:462:1132| 0)
                            (not (= (+ |main__t':140:160:167:336:460:1130|
                                         (- havoc) 2) 0))
                            (not (= |havoc:9:59:138:334:342:466:1136| 0))
                            (= (+ |__tmp_383_0':139:163:170:339:463:1133|
                                    (- |phi___tmp_383_0:351:450:1120|)) 0)
                            (= (+ |havoc:9:59:138:334:342:466:1136|
                                    (- |phi___tmp_247_0:350:451:1121|)) 0)
                            (= (+ |main__t':140:160:167:336:460:1130|
                                    (- |phi_main__t:349:452:1122|) 1) 0)
                            (= (+ |__tmp_383_0':139:163:170:339:463:1133|
                                    (- |phi_main____CPAchecker_TMP_0:348:453:1123|)) 0)
                            (= (+ (- |phi___VERIFIER_assert__cond___11:347:454:1124|)
                                    1) 0)
                            (= (+ (ite (<= (+ (- havoc) 1) 0) 1 0)
                                    (- |phi___VERIFIER_assert__cond___12:346:455:1125|)) 0)
                            (= (+ |havoc:9:59:138:334:342:466:1136|
                                    (- |phi_main____CPAchecker_TMP_0___0:345:456:1126|)) 0)
                            (= (+ |__VERIFIER_assert__cond___15':143:161:168:337:461:1131|
                                    (- |phi___VERIFIER_assert__cond___15:344:457:1127|)) 0)
                            (= (+ |__VERIFIER_assert__cond___16':144:164:171:340:464:1134|
                                    (- |phi___VERIFIER_assert__cond___16:343:458:1128|)) 0)))
               (not (= (ite (<= (- |phi_main__t:349:452:1122|) 0) 1 0) 0))
               (not (= (ite (<= (+ |phi_main__t:349:452:1122| (- havoc) 1) 0)
                            1 0) 0))
               (or (not (and (<= (- |K:313:314:323:1110:1137|) 0)
                               (<= |K:313:314:323:1110:1137| 0)))
                     (= (+ (- __VERIFIER_assert__cond___7)
                             |__VERIFIER_assert__cond___7':299:315:324:1111:1138|) 0))
               (or (not (<= (+ (- |K:313:314:323:1110:1137|) 1) 0))
                     (= (+ |__VERIFIER_assert__cond___7':299:315:324:1111:1138|
                             -1) 0))
               (or (not (and (<= (- |K:313:314:323:1110:1137|) 0)
                               (<= |K:313:314:323:1110:1137| 0)))
                     (= (+ (- __VERIFIER_assert__cond___8)
                             |__VERIFIER_assert__cond___8':300:316:325:1112:1139|) 0))
               (or (not (<= (+ (- |K:313:314:323:1110:1137|) 1) 0))
                     (= (+ |__VERIFIER_assert__cond___8':300:316:325:1112:1139|
                             -1) 0))
               (or (not (<= (- |K:313:314:323:1110:1137|) 0))
                     (<= (+ |main__t':140:317:326:1113:1140|
                              (* -2 |K:313:314:323:1110:1137|)
                              (- |phi_main__t:349:452:1122|) -1) 0))
               (or (not (<= (- |K:313:314:323:1110:1137|) 0))
                     (<= (+ |main__t':140:317:326:1113:1140|
                              (* 2 |K:313:314:323:1110:1137|)
                              (- |phi_main__t:349:452:1122|)
                              (- (* |K:313:314:323:1110:1137| havoc)) -1) 0))
               (or (not (<= (- |K:313:314:323:1110:1137|) 0))
                     (<= (+ (- |main__t':140:317:326:1113:1140|)
                              |K:313:314:323:1110:1137|
                              |phi_main__t:349:452:1122| 1) 0))
               (or (and (= |K:313:314:323:1110:1137| 0)
                          (= (+ (- |main____CPAchecker_TMP_6':301:318:327:1114:1141|)
                                  main____CPAchecker_TMP_6) 0)
                          (= (+ __VERIFIER_assert__cond___8
                                  (- |__VERIFIER_assert__cond___8':300:316:325:1112:1139|)) 0)
                          (= (+ __VERIFIER_assert__cond___7
                                  (- |__VERIFIER_assert__cond___7':299:315:324:1111:1138|)) 0)
                          (= (+ (- |__VERIFIER_assert__cond___4':298:319:328:1115:1142|)
                                  __VERIFIER_assert__cond___4) 0)
                          (= (+ (- |__VERIFIER_assert__cond___3':297:320:329:1116:1143|)
                                  __VERIFIER_assert__cond___3) 0)
                          (= (+ (- |main____CPAchecker_TMP_4':296:321:330:1117:1144|)
                                  main____CPAchecker_TMP_4) 0)
                          (= (+ (- |main____CPAchecker_TMP_3':295:322:331:1118:1145|)
                                  main____CPAchecker_TMP_3) 0)
                          (= (+ (- |main__t':140:317:326:1113:1140|)
                                  |phi_main__t:349:452:1122| 1) 0))
                     (and (<= (+ (- |K:313:314:323:1110:1137|) 1) 0)
                            (<= (+ |phi_main__t:349:452:1122| (- havoc) 3) 0)
                            (<= (- |phi_main__t:349:452:1122|) 0)
                            (= (+ |__VERIFIER_assert__cond___8':300:316:325:1112:1139|
                                    -1) 0)
                            (= (+ |__VERIFIER_assert__cond___7':299:315:324:1111:1138|
                                    -1) 0)
                            (<= (+ |main__t':140:317:326:1113:1140| (- 
                                     havoc) 1) 0)
                            (<= (+ (- |main__t':140:317:326:1113:1140|) 2) 0)))
               (<= (- |K:313:314:323:1110:1137|) 0)
               (< (- |main__t':140:317:326:1113:1140|) 0)
               (< (+ (- havoc) 1) 0)
               (= (+ |main__t':140:317:326:1113:1140| (- havoc) 1) 0)
               (= (ite (<= (- |main__t':140:317:326:1113:1140|) 0) 1 0) 0)))
(check-sat)
